100
32
12
20
14
6
15
7
11
6
26
15
4
31
6
10
7
32
2
27
1
31
10
24
22
10
19
15
13
32
32
14
21
8
8
11
10
20
12
21
10
8
17
7
3
26
25
3
7
22
8
6
29
4
19
13
8
2
20
16
18
15
14
19
18
11
3
32
8
4
2
26
8
18
16
16
6
7
19
21
11
14
18
1
6
5
24
11
32
21
9
1
21
7
5
32
21
31
11
2
18
14